p cnf 1347 3022
1 2 0
3 2 0
4 2 0
5 2 0
6 2 0
7 2 0
8 2 0
-9 0
2 -10 -11 0
11 -10 -2 0
10 -2 -11 0
11 10 2 0
-10 0
3 12 0
4 12 0
5 12 0
6 12 0
7 12 0
8 12 0
-13 0
12 -14 -15 0
14 -12 -15 0
15 -12 -14 0
14 12 15 0
-15 0
4 16 0
5 16 0
6 16 0
7 16 0
8 16 0
-17 0
16 -18 -19 0
18 -16 -19 0
19 -16 -18 0
18 16 19 0
-19 0
16 -20 -21 0
20 -16 -21 0
21 -16 -20 0
20 16 21 0
-21 0
16 -22 -23 0
22 -16 -23 0
23 -16 -22 0
22 16 23 0
-23 0
16 -24 -25 0
24 -16 -25 0
25 -16 -24 0
24 16 25 0
-25 0
16 -26 -27 0
26 -16 -27 0
27 -16 -26 0
26 16 27 0
-27 0
28 29 0
30 29 0
31 29 0
32 29 0
33 29 0
34 29 0
35 29 0
36 29 0
37 29 0
38 29 0
39 29 0
-40 0
29 -41 -42 0
41 -29 -42 0
42 -29 -41 0
41 29 42 0
-42 0
30 43 0
31 43 0
32 43 0
33 43 0
34 43 0
35 43 0
36 43 0
37 43 0
38 43 0
39 43 0
-44 0
43 -45 -46 0
45 -43 -46 0
46 -43 -45 0
45 43 46 0
-46 0
31 47 0
32 47 0
33 47 0
34 47 0
35 47 0
36 47 0
37 47 0
38 47 0
39 47 0
-48 0
47 -49 -50 0
49 -47 -50 0
50 -47 -49 0
49 47 50 0
-50 0
32 51 0
33 51 0
34 51 0
35 51 0
36 51 0
37 51 0
38 51 0
39 51 0
-52 0
51 -53 -54 0
53 -51 -54 0
54 -51 -53 0
53 51 54 0
-54 0
33 55 0
34 55 0
35 55 0
36 55 0
37 55 0
38 55 0
39 55 0
-56 0
55 -57 -58 0
57 -55 -58 0
58 -55 -57 0
57 55 58 0
-58 0
34 59 0
35 59 0
36 59 0
37 59 0
38 59 0
39 59 0
-60 0
59 -61 -62 0
61 -59 -62 0
62 -59 -61 0
61 59 62 0
-62 0
59 -63 -64 0
63 -59 -64 0
64 -59 -63 0
63 59 64 0
-64 0
59 -65 -66 0
65 -59 -66 0
66 -59 -65 0
65 59 66 0
-66 0
59 -67 -68 0
67 -59 -68 0
68 -59 -67 0
67 59 68 0
-68 0
59 -69 -70 0
69 -59 -70 0
70 -59 -69 0
69 59 70 0
-70 0
59 -71 -72 0
71 -59 -72 0
72 -59 -71 0
71 59 72 0
-72 0
73 74 0
75 74 0
76 74 0
77 74 0
78 74 0
79 74 0
80 74 0
81 74 0
82 74 0
83 74 0
-84 0
74 -85 -86 0
85 -74 -86 0
86 -74 -85 0
85 74 86 0
-86 0
75 87 0
76 87 0
77 87 0
78 87 0
79 87 0
80 87 0
81 87 0
82 87 0
83 87 0
-88 0
87 -89 -90 0
89 -87 -90 0
90 -87 -89 0
89 87 90 0
-90 0
76 91 0
77 91 0
78 91 0
79 91 0
80 91 0
81 91 0
82 91 0
83 91 0
-92 0
91 -93 -94 0
93 -91 -94 0
94 -91 -93 0
93 91 94 0
-94 0
77 95 0
78 95 0
79 95 0
80 95 0
81 95 0
82 95 0
83 95 0
-96 0
95 -97 -98 0
97 -95 -98 0
98 -95 -97 0
97 95 98 0
-98 0
78 99 0
79 99 0
80 99 0
81 99 0
82 99 0
83 99 0
-100 0
99 -101 -102 0
101 -99 -102 0
102 -99 -101 0
101 99 102 0
-102 0
79 103 0
80 103 0
81 103 0
82 103 0
83 103 0
-104 0
103 -105 -106 0
105 -103 -106 0
106 -103 -105 0
105 103 106 0
-106 0
103 -107 -108 0
107 -103 -108 0
108 -103 -107 0
107 103 108 0
-108 0
103 -109 -110 0
109 -103 -110 0
110 -103 -109 0
109 103 110 0
-110 0
103 -111 -112 0
111 -103 -112 0
112 -103 -111 0
111 103 112 0
-112 0
103 -113 -114 0
113 -103 -114 0
114 -103 -113 0
113 103 114 0
-114 0
115 116 0
117 116 0
118 116 0
119 116 0
-120 0
116 -121 -122 0
121 -116 -122 0
122 -116 -121 0
121 116 122 0
-122 0
117 123 0
118 123 0
119 123 0
-117 -118 -119 -123 0
123 -124 -125 0
124 -123 -125 0
125 -123 -124 0
124 123 125 0
-125 0
118 126 0
119 126 0
-118 -119 -126 0
126 -127 -128 0
127 -126 -128 0
128 -126 -127 0
127 126 128 0
-128 0
129 -119 0
119 -129 0
130 131 0
132 131 0
133 131 0
134 131 0
135 131 0
136 131 0
137 131 0
138 131 0
139 131 0
140 131 0
-141 0
131 -142 -143 0
142 -131 -143 0
143 -131 -142 0
142 131 143 0
-143 0
132 144 0
133 144 0
134 144 0
135 144 0
136 144 0
137 144 0
138 144 0
139 144 0
140 144 0
-145 0
144 -146 -147 0
146 -144 -147 0
147 -144 -146 0
146 144 147 0
-147 0
133 148 0
134 148 0
135 148 0
136 148 0
137 148 0
138 148 0
139 148 0
140 148 0
-149 0
148 -150 -151 0
150 -148 -151 0
151 -148 -150 0
150 148 151 0
-151 0
134 152 0
135 152 0
136 152 0
137 152 0
138 152 0
139 152 0
140 152 0
-153 0
152 -154 -155 0
154 -152 -155 0
155 -152 -154 0
154 152 155 0
-155 0
135 156 0
136 156 0
137 156 0
138 156 0
139 156 0
140 156 0
-157 0
156 -158 -159 0
158 -156 -159 0
159 -156 -158 0
158 156 159 0
-159 0
136 160 0
137 160 0
138 160 0
139 160 0
140 160 0
-161 0
160 -162 -163 0
162 -160 -163 0
163 -160 -162 0
162 160 163 0
-163 0
160 -164 -165 0
164 -160 -165 0
165 -160 -164 0
164 160 165 0
-165 0
160 -166 -167 0
166 -160 -167 0
167 -160 -166 0
166 160 167 0
-167 0
160 -168 -169 0
168 -160 -169 0
169 -160 -168 0
168 160 169 0
-169 0
160 -170 -171 0
170 -160 -171 0
171 -160 -170 0
170 160 171 0
-171 0
172 173 0
174 173 0
175 173 0
176 173 0
177 173 0
178 173 0
179 173 0
180 173 0
181 173 0
-182 0
173 -183 -184 0
183 -173 -184 0
184 -173 -183 0
183 173 184 0
-184 0
174 185 0
175 185 0
176 185 0
177 185 0
178 185 0
179 185 0
180 185 0
181 185 0
-186 0
185 -187 -188 0
187 -185 -188 0
188 -185 -187 0
187 185 188 0
-188 0
175 189 0
176 189 0
177 189 0
178 189 0
179 189 0
180 189 0
181 189 0
-190 0
189 -191 -192 0
191 -189 -192 0
192 -189 -191 0
191 189 192 0
-192 0
176 193 0
177 193 0
178 193 0
179 193 0
180 193 0
181 193 0
-194 0
193 -195 -196 0
195 -193 -196 0
196 -193 -195 0
195 193 196 0
-196 0
177 197 0
178 197 0
179 197 0
180 197 0
181 197 0
-198 0
197 -199 -200 0
199 -197 -200 0
200 -197 -199 0
199 197 200 0
-200 0
197 -201 -202 0
201 -197 -202 0
202 -197 -201 0
201 197 202 0
-202 0
197 -203 -204 0
203 -197 -204 0
204 -197 -203 0
203 197 204 0
-204 0
197 -205 -206 0
205 -197 -206 0
206 -197 -205 0
205 197 206 0
-206 0
197 -207 -208 0
207 -197 -208 0
208 -197 -207 0
207 197 208 0
-208 0
209 210 0
211 210 0
212 210 0
213 210 0
214 210 0
215 210 0
216 210 0
217 210 0
218 210 0
219 210 0
220 210 0
-221 0
210 -222 -223 0
222 -210 -223 0
223 -210 -222 0
222 210 223 0
-223 0
211 224 0
212 224 0
213 224 0
214 224 0
215 224 0
216 224 0
217 224 0
218 224 0
219 224 0
220 224 0
-225 0
224 -226 -227 0
226 -224 -227 0
227 -224 -226 0
226 224 227 0
-227 0
212 228 0
213 228 0
214 228 0
215 228 0
216 228 0
217 228 0
218 228 0
219 228 0
220 228 0
-229 0
228 -230 -231 0
230 -228 -231 0
231 -228 -230 0
230 228 231 0
-231 0
213 232 0
214 232 0
215 232 0
216 232 0
217 232 0
218 232 0
219 232 0
220 232 0
-233 0
232 -234 -235 0
234 -232 -235 0
235 -232 -234 0
234 232 235 0
-235 0
214 236 0
215 236 0
216 236 0
217 236 0
218 236 0
219 236 0
220 236 0
-237 0
236 -238 -239 0
238 -236 -239 0
239 -236 -238 0
238 236 239 0
-239 0
215 240 0
216 240 0
217 240 0
218 240 0
219 240 0
220 240 0
-241 0
240 -242 -243 0
242 -240 -243 0
243 -240 -242 0
242 240 243 0
-243 0
240 -244 -245 0
244 -240 -245 0
245 -240 -244 0
244 240 245 0
-245 0
240 -246 -247 0
246 -240 -247 0
247 -240 -246 0
246 240 247 0
-247 0
240 -248 -249 0
248 -240 -249 0
249 -240 -248 0
248 240 249 0
-249 0
240 -250 -251 0
250 -240 -251 0
251 -240 -250 0
250 240 251 0
-251 0
240 -252 -253 0
252 -240 -253 0
253 -240 -252 0
252 240 253 0
-253 0
254 255 0
256 255 0
257 255 0
258 255 0
259 255 0
260 255 0
261 255 0
262 255 0
263 255 0
-264 0
255 -265 -266 0
265 -255 -266 0
266 -255 -265 0
265 255 266 0
-266 0
256 267 0
257 267 0
258 267 0
259 267 0
260 267 0
261 267 0
262 267 0
263 267 0
-268 0
267 -269 -270 0
269 -267 -270 0
270 -267 -269 0
269 267 270 0
-270 0
257 271 0
258 271 0
259 271 0
260 271 0
261 271 0
262 271 0
263 271 0
-272 0
271 -273 -274 0
273 -271 -274 0
274 -271 -273 0
273 271 274 0
-274 0
258 275 0
259 275 0
260 275 0
261 275 0
262 275 0
263 275 0
-276 0
275 -277 -278 0
277 -275 -278 0
278 -275 -277 0
277 275 278 0
-278 0
259 279 0
260 279 0
261 279 0
262 279 0
263 279 0
-280 0
279 -281 -282 0
281 -279 -282 0
282 -279 -281 0
281 279 282 0
-282 0
260 283 0
261 283 0
262 283 0
263 283 0
-284 0
283 -285 -286 0
285 -283 -286 0
286 -283 -285 0
285 283 286 0
-286 0
283 -287 -288 0
287 -283 -288 0
288 -283 -287 0
287 283 288 0
-288 0
283 -289 -290 0
289 -283 -290 0
290 -283 -289 0
289 283 290 0
-290 0
283 -291 -292 0
291 -283 -292 0
292 -283 -291 0
291 283 292 0
-292 0
293 294 0
295 294 0
296 294 0
297 294 0
298 294 0
299 294 0
300 294 0
301 294 0
302 294 0
303 294 0
304 294 0
-305 0
294 -306 -307 0
306 -294 -307 0
307 -294 -306 0
306 294 307 0
-307 0
295 308 0
296 308 0
297 308 0
298 308 0
299 308 0
300 308 0
301 308 0
302 308 0
303 308 0
304 308 0
-309 0
308 -310 -311 0
310 -308 -311 0
311 -308 -310 0
310 308 311 0
-311 0
296 312 0
297 312 0
298 312 0
299 312 0
300 312 0
301 312 0
302 312 0
303 312 0
304 312 0
-313 0
312 -314 -315 0
314 -312 -315 0
315 -312 -314 0
314 312 315 0
-315 0
297 316 0
298 316 0
299 316 0
300 316 0
301 316 0
302 316 0
303 316 0
304 316 0
-317 0
316 -318 -319 0
318 -316 -319 0
319 -316 -318 0
318 316 319 0
-319 0
298 320 0
299 320 0
300 320 0
301 320 0
302 320 0
303 320 0
304 320 0
-321 0
320 -322 -323 0
322 -320 -323 0
323 -320 -322 0
322 320 323 0
-323 0
299 324 0
300 324 0
301 324 0
302 324 0
303 324 0
304 324 0
-325 0
324 -326 -327 0
326 -324 -327 0
327 -324 -326 0
326 324 327 0
-327 0
324 -328 -329 0
328 -324 -329 0
329 -324 -328 0
328 324 329 0
-329 0
324 -330 -331 0
330 -324 -331 0
331 -324 -330 0
330 324 331 0
-331 0
324 -332 -333 0
332 -324 -333 0
333 -324 -332 0
332 324 333 0
-333 0
324 -334 -335 0
334 -324 -335 0
335 -324 -334 0
334 324 335 0
-335 0
324 -336 -337 0
336 -324 -337 0
337 -324 -336 0
336 324 337 0
-337 0
338 339 0
340 339 0
341 339 0
342 339 0
343 339 0
344 339 0
345 339 0
346 339 0
347 339 0
348 339 0
-349 0
339 -350 -351 0
350 -339 -351 0
351 -339 -350 0
350 339 351 0
-351 0
340 352 0
341 352 0
342 352 0
343 352 0
344 352 0
345 352 0
346 352 0
347 352 0
348 352 0
-353 0
352 -354 -355 0
354 -352 -355 0
355 -352 -354 0
354 352 355 0
-355 0
341 356 0
342 356 0
343 356 0
344 356 0
345 356 0
346 356 0
347 356 0
348 356 0
-357 0
356 -358 -359 0
358 -356 -359 0
359 -356 -358 0
358 356 359 0
-359 0
342 360 0
343 360 0
344 360 0
345 360 0
346 360 0
347 360 0
348 360 0
-361 0
360 -362 -363 0
362 -360 -363 0
363 -360 -362 0
362 360 363 0
-363 0
343 364 0
344 364 0
345 364 0
346 364 0
347 364 0
348 364 0
-365 0
364 -366 -367 0
366 -364 -367 0
367 -364 -366 0
366 364 367 0
-367 0
364 -368 -369 0
368 -364 -369 0
369 -364 -368 0
368 364 369 0
-369 0
364 -370 -371 0
370 -364 -371 0
371 -364 -370 0
370 364 371 0
-371 0
364 -372 -373 0
372 -364 -373 0
373 -364 -372 0
372 364 373 0
-373 0
364 -374 -375 0
374 -364 -375 0
375 -364 -374 0
374 364 375 0
-375 0
364 -376 -377 0
376 -364 -377 0
377 -364 -376 0
376 364 377 0
-377 0
378 379 0
380 379 0
381 379 0
382 379 0
383 379 0
384 379 0
385 379 0
386 379 0
387 379 0
-388 0
-389 379 -390 0
389 -379 -390 0
390 -379 -389 0
389 379 390 0
-390 0
380 391 0
381 391 0
382 391 0
383 391 0
384 391 0
385 391 0
386 391 0
387 391 0
-392 0
391 -393 -394 0
393 -391 -394 0
394 -391 -393 0
393 391 394 0
-394 0
381 395 0
382 395 0
383 395 0
384 395 0
385 395 0
386 395 0
387 395 0
-396 0
395 -397 -398 0
397 -395 -398 0
398 -395 -397 0
397 395 398 0
-398 0
382 399 0
383 399 0
384 399 0
385 399 0
386 399 0
387 399 0
-400 0
399 -401 -402 0
401 -399 -402 0
402 -399 -401 0
401 399 402 0
-402 0
383 403 0
384 403 0
385 403 0
386 403 0
387 403 0
-404 0
403 -405 -406 0
405 -403 -406 0
406 -403 -405 0
405 403 406 0
-406 0
403 -407 -408 0
407 -403 -408 0
408 -403 -407 0
407 403 408 0
-408 0
403 -409 -410 0
409 -403 -410 0
410 -403 -409 0
409 403 410 0
-410 0
403 -411 -412 0
411 -403 -412 0
412 -403 -411 0
411 403 412 0
-412 0
403 -413 -414 0
413 -403 -414 0
414 -403 -413 0
413 403 414 0
-414 0
415 416 0
417 416 0
418 416 0
419 416 0
420 416 0
421 416 0
422 416 0
423 416 0
424 416 0
425 416 0
426 416 0
-427 0
-428 416 -429 0
428 -416 -429 0
429 -416 -428 0
428 416 429 0
-429 0
417 430 0
418 430 0
419 430 0
420 430 0
421 430 0
422 430 0
423 430 0
424 430 0
425 430 0
426 430 0
-431 0
430 -432 -433 0
432 -430 -433 0
433 -430 -432 0
432 430 433 0
-433 0
418 434 0
419 434 0
420 434 0
421 434 0
422 434 0
423 434 0
424 434 0
425 434 0
426 434 0
-435 0
434 -436 -437 0
436 -434 -437 0
437 -434 -436 0
436 434 437 0
-437 0
419 438 0
420 438 0
421 438 0
422 438 0
423 438 0
424 438 0
425 438 0
426 438 0
-439 0
438 -440 -441 0
440 -438 -441 0
441 -438 -440 0
440 438 441 0
-441 0
420 442 0
421 442 0
422 442 0
423 442 0
424 442 0
425 442 0
426 442 0
-443 0
442 -444 -445 0
444 -442 -445 0
445 -442 -444 0
444 442 445 0
-445 0
421 446 0
422 446 0
423 446 0
424 446 0
425 446 0
426 446 0
-447 0
446 -448 -449 0
448 -446 -449 0
449 -446 -448 0
448 446 449 0
-449 0
446 -450 -451 0
450 -446 -451 0
451 -446 -450 0
450 446 451 0
-451 0
446 -452 -453 0
452 -446 -453 0
453 -446 -452 0
452 446 453 0
-453 0
446 -454 -455 0
454 -446 -455 0
455 -446 -454 0
454 446 455 0
-455 0
446 -456 -457 0
456 -446 -457 0
457 -446 -456 0
456 446 457 0
-457 0
446 -458 -459 0
458 -446 -459 0
459 -446 -458 0
458 446 459 0
-459 0
460 461 0
462 461 0
463 461 0
464 461 0
465 461 0
466 461 0
467 461 0
468 461 0
469 461 0
470 461 0
471 461 0
-472 0
-473 461 -474 0
473 -461 -474 0
474 -461 -473 0
473 461 474 0
-474 0
462 475 0
463 475 0
464 475 0
465 475 0
466 475 0
467 475 0
468 475 0
469 475 0
470 475 0
471 475 0
-476 0
475 -477 -478 0
477 -475 -478 0
478 -475 -477 0
477 475 478 0
-478 0
463 479 0
464 479 0
465 479 0
466 479 0
467 479 0
468 479 0
469 479 0
470 479 0
471 479 0
-480 0
479 -481 -482 0
481 -479 -482 0
482 -479 -481 0
481 479 482 0
-482 0
464 483 0
465 483 0
466 483 0
467 483 0
468 483 0
469 483 0
470 483 0
471 483 0
-484 0
483 -485 -486 0
485 -483 -486 0
486 -483 -485 0
485 483 486 0
-486 0
465 487 0
466 487 0
467 487 0
468 487 0
469 487 0
470 487 0
471 487 0
-488 0
487 -489 -490 0
489 -487 -490 0
490 -487 -489 0
489 487 490 0
-490 0
466 491 0
467 491 0
468 491 0
469 491 0
470 491 0
471 491 0
-492 0
491 -493 -494 0
493 -491 -494 0
494 -491 -493 0
493 491 494 0
-494 0
491 -495 -496 0
495 -491 -496 0
496 -491 -495 0
495 491 496 0
-496 0
491 -497 -498 0
497 -491 -498 0
498 -491 -497 0
497 491 498 0
-498 0
491 -499 -500 0
499 -491 -500 0
500 -491 -499 0
499 491 500 0
-500 0
491 -501 -502 0
501 -491 -502 0
502 -491 -501 0
501 491 502 0
-502 0
491 -503 -504 0
503 -491 -504 0
504 -491 -503 0
503 491 504 0
-504 0
505 506 0
507 506 0
508 506 0
509 506 0
510 506 0
511 506 0
512 506 0
513 506 0
-514 0
-515 506 -516 0
515 -506 -516 0
516 -506 -515 0
515 506 516 0
-516 0
507 517 0
508 517 0
509 517 0
510 517 0
511 517 0
512 517 0
513 517 0
-518 0
517 -519 -520 0
519 -517 -520 0
520 -517 -519 0
519 517 520 0
-520 0
508 521 0
509 521 0
510 521 0
511 521 0
512 521 0
513 521 0
-522 0
521 -523 -524 0
523 -521 -524 0
524 -521 -523 0
523 521 524 0
-524 0
509 525 0
510 525 0
511 525 0
512 525 0
513 525 0
-526 0
525 -527 -528 0
527 -525 -528 0
528 -525 -527 0
527 525 528 0
-528 0
510 529 0
511 529 0
512 529 0
513 529 0
-530 0
529 -531 -532 0
531 -529 -532 0
532 -529 -531 0
531 529 532 0
-532 0
529 -533 -534 0
533 -529 -534 0
534 -529 -533 0
533 529 534 0
-534 0
529 -535 -536 0
535 -529 -536 0
536 -529 -535 0
535 529 536 0
-536 0
529 -537 -538 0
537 -529 -538 0
538 -529 -537 0
537 529 538 0
-538 0
539 540 0
541 540 0
542 540 0
543 540 0
544 540 0
545 540 0
-546 0
-547 540 -548 0
547 -540 -548 0
548 -540 -547 0
547 540 548 0
-548 0
541 549 0
542 549 0
543 549 0
544 549 0
545 549 0
-550 0
549 -551 -552 0
551 -549 -552 0
552 -549 -551 0
551 549 552 0
-552 0
542 553 0
543 553 0
544 553 0
545 553 0
-554 0
553 -555 -556 0
555 -553 -556 0
556 -553 -555 0
555 553 556 0
-556 0
553 -557 -558 0
557 -553 -558 0
558 -553 -557 0
557 553 558 0
-558 0
553 -559 -560 0
559 -553 -560 0
560 -553 -559 0
559 553 560 0
-560 0
553 -561 -562 0
561 -553 -562 0
562 -553 -561 0
561 553 562 0
-562 0
563 564 0
565 564 0
566 564 0
567 564 0
568 564 0
569 564 0
570 564 0
571 564 0
572 564 0
573 564 0
574 564 0
-575 0
-576 564 -577 0
576 -564 -577 0
577 -564 -576 0
576 564 577 0
-577 0
565 578 0
566 578 0
567 578 0
568 578 0
569 578 0
570 578 0
571 578 0
572 578 0
573 578 0
574 578 0
-579 0
578 -580 -581 0
580 -578 -581 0
581 -578 -580 0
580 578 581 0
-581 0
566 582 0
567 582 0
568 582 0
569 582 0
570 582 0
571 582 0
572 582 0
573 582 0
574 582 0
-583 0
582 -584 -585 0
584 -582 -585 0
585 -582 -584 0
584 582 585 0
-585 0
567 586 0
568 586 0
569 586 0
570 586 0
571 586 0
572 586 0
573 586 0
574 586 0
-587 0
586 -588 -589 0
588 -586 -589 0
589 -586 -588 0
588 586 589 0
-589 0
568 590 0
569 590 0
570 590 0
571 590 0
572 590 0
573 590 0
574 590 0
-591 0
590 -592 -593 0
592 -590 -593 0
593 -590 -592 0
592 590 593 0
-593 0
569 594 0
570 594 0
571 594 0
572 594 0
573 594 0
574 594 0
-595 0
594 -596 -597 0
596 -594 -597 0
597 -594 -596 0
596 594 597 0
-597 0
594 -598 -599 0
598 -594 -599 0
599 -594 -598 0
598 594 599 0
-599 0
594 -600 -601 0
600 -594 -601 0
601 -594 -600 0
600 594 601 0
-601 0
594 -602 -603 0
602 -594 -603 0
603 -594 -602 0
602 594 603 0
-603 0
594 -604 -605 0
604 -594 -605 0
605 -594 -604 0
604 594 605 0
-605 0
594 -606 -607 0
606 -594 -607 0
607 -594 -606 0
606 594 607 0
-607 0
608 609 0
610 609 0
611 609 0
612 609 0
613 609 0
614 609 0
615 609 0
616 609 0
617 609 0
618 609 0
-619 0
-620 609 -621 0
620 -609 -621 0
621 -609 -620 0
620 609 621 0
-621 0
610 622 0
611 622 0
612 622 0
613 622 0
614 622 0
615 622 0
616 622 0
617 622 0
618 622 0
-623 0
622 -624 -625 0
624 -622 -625 0
625 -622 -624 0
624 622 625 0
-625 0
611 626 0
612 626 0
613 626 0
614 626 0
615 626 0
616 626 0
617 626 0
618 626 0
-627 0
626 -628 -629 0
628 -626 -629 0
629 -626 -628 0
628 626 629 0
-629 0
612 630 0
613 630 0
614 630 0
615 630 0
616 630 0
617 630 0
618 630 0
-631 0
630 -632 -633 0
632 -630 -633 0
633 -630 -632 0
632 630 633 0
-633 0
613 634 0
614 634 0
615 634 0
616 634 0
617 634 0
618 634 0
-635 0
634 -636 -637 0
636 -634 -637 0
637 -634 -636 0
636 634 637 0
-637 0
634 -638 -639 0
638 -634 -639 0
639 -634 -638 0
638 634 639 0
-639 0
634 -640 -641 0
640 -634 -641 0
641 -634 -640 0
640 634 641 0
-641 0
634 -642 -643 0
642 -634 -643 0
643 -634 -642 0
642 634 643 0
-643 0
634 -644 -645 0
644 -634 -645 0
645 -634 -644 0
644 634 645 0
-645 0
634 -646 -647 0
646 -634 -647 0
647 -634 -646 0
646 634 647 0
-647 0
648 649 0
650 649 0
651 649 0
652 649 0
653 649 0
654 649 0
655 649 0
656 649 0
657 649 0
658 649 0
659 649 0
660 649 0
-661 0
-662 649 -663 0
662 -649 -663 0
663 -649 -662 0
662 649 663 0
-663 0
650 664 0
651 664 0
652 664 0
653 664 0
654 664 0
655 664 0
656 664 0
657 664 0
658 664 0
659 664 0
660 664 0
-665 0
664 -666 -667 0
666 -664 -667 0
667 -664 -666 0
666 664 667 0
-667 0
651 668 0
652 668 0
653 668 0
654 668 0
655 668 0
656 668 0
657 668 0
658 668 0
659 668 0
660 668 0
-669 0
668 -670 -671 0
670 -668 -671 0
671 -668 -670 0
670 668 671 0
-671 0
652 672 0
653 672 0
654 672 0
655 672 0
656 672 0
657 672 0
658 672 0
659 672 0
660 672 0
-673 0
672 -674 -675 0
674 -672 -675 0
675 -672 -674 0
674 672 675 0
-675 0
653 676 0
654 676 0
655 676 0
656 676 0
657 676 0
658 676 0
659 676 0
660 676 0
-677 0
676 -678 -679 0
678 -676 -679 0
679 -676 -678 0
678 676 679 0
-679 0
654 680 0
655 680 0
656 680 0
657 680 0
658 680 0
659 680 0
660 680 0
-681 0
680 -682 -683 0
682 -680 -683 0
683 -680 -682 0
682 680 683 0
-683 0
655 684 0
656 684 0
657 684 0
658 684 0
659 684 0
660 684 0
-685 0
684 -686 -687 0
686 -684 -687 0
687 -684 -686 0
686 684 687 0
-687 0
684 -688 -689 0
688 -684 -689 0
689 -684 -688 0
688 684 689 0
-689 0
684 -690 -691 0
690 -684 -691 0
691 -684 -690 0
690 684 691 0
-691 0
684 -692 -693 0
692 -684 -693 0
693 -684 -692 0
692 684 693 0
-693 0
684 -694 -695 0
694 -684 -695 0
695 -684 -694 0
694 684 695 0
-695 0
684 -696 -697 0
696 -684 -697 0
697 -684 -696 0
696 684 697 0
-697 0
698 699 0
700 699 0
701 699 0
702 699 0
703 699 0
704 699 0
705 699 0
706 699 0
707 699 0
708 699 0
-709 0
-710 699 -711 0
710 -699 -711 0
711 -699 -710 0
710 699 711 0
-711 0
700 712 0
701 712 0
702 712 0
703 712 0
704 712 0
705 712 0
706 712 0
707 712 0
708 712 0
-713 0
712 -714 -715 0
714 -712 -715 0
715 -712 -714 0
714 712 715 0
-715 0
701 716 0
702 716 0
703 716 0
704 716 0
705 716 0
706 716 0
707 716 0
708 716 0
-717 0
716 -718 -719 0
718 -716 -719 0
719 -716 -718 0
718 716 719 0
-719 0
702 720 0
703 720 0
704 720 0
705 720 0
706 720 0
707 720 0
708 720 0
-721 0
720 -722 -723 0
722 -720 -723 0
723 -720 -722 0
722 720 723 0
-723 0
703 724 0
704 724 0
705 724 0
706 724 0
707 724 0
708 724 0
-725 0
724 -726 -727 0
726 -724 -727 0
727 -724 -726 0
726 724 727 0
-727 0
704 728 0
705 728 0
706 728 0
707 728 0
708 728 0
-729 0
728 -730 -731 0
730 -728 -731 0
731 -728 -730 0
730 728 731 0
-731 0
705 732 0
706 732 0
707 732 0
708 732 0
-733 0
732 -734 -735 0
734 -732 -735 0
735 -732 -734 0
734 732 735 0
-735 0
732 -736 -737 0
736 -732 -737 0
737 -732 -736 0
736 732 737 0
-737 0
732 -738 -739 0
738 -732 -739 0
739 -732 -738 0
738 732 739 0
-739 0
732 -740 -741 0
740 -732 -741 0
741 -732 -740 0
740 732 741 0
-741 0
742 743 0
744 743 0
745 743 0
746 743 0
747 743 0
748 743 0
749 743 0
750 743 0
751 743 0
-752 0
-753 743 -754 0
753 -743 -754 0
754 -743 -753 0
753 743 754 0
-754 0
744 755 0
745 755 0
746 755 0
747 755 0
748 755 0
749 755 0
750 755 0
751 755 0
-756 0
755 -757 -758 0
757 -755 -758 0
758 -755 -757 0
757 755 758 0
-758 0
745 759 0
746 759 0
747 759 0
748 759 0
749 759 0
750 759 0
751 759 0
-760 0
759 -761 -762 0
761 -759 -762 0
762 -759 -761 0
761 759 762 0
-762 0
746 763 0
747 763 0
748 763 0
749 763 0
750 763 0
751 763 0
-764 0
763 -765 -766 0
765 -763 -766 0
766 -763 -765 0
765 763 766 0
-766 0
747 767 0
748 767 0
749 767 0
750 767 0
751 767 0
-768 0
767 -769 -770 0
769 -767 -770 0
770 -767 -769 0
769 767 770 0
-770 0
748 771 0
749 771 0
750 771 0
751 771 0
-772 0
771 -773 -774 0
773 -771 -774 0
774 -771 -773 0
773 771 774 0
-774 0
771 -775 -776 0
775 -771 -776 0
776 -771 -775 0
775 771 776 0
-776 0
771 -777 -778 0
777 -771 -778 0
778 -771 -777 0
777 771 778 0
-778 0
771 -779 -780 0
779 -771 -780 0
780 -771 -779 0
779 771 780 0
-780 0
781 -782 0
783 781 0
782 -783 -781 0
1 -781 0
-1 781 0
784 -785 0
786 784 0
785 -786 -784 0
3 -784 0
-3 784 0
787 -788 0
789 787 0
788 -789 -787 0
4 -787 0
-4 787 0
790 -791 0
792 790 0
791 -792 -790 0
5 -790 0
-5 790 0
793 -794 0
795 793 0
794 -795 -793 0
6 -793 0
-6 793 0
796 -797 0
798 796 0
797 -798 -796 0
7 -796 0
-7 796 0
799 -800 0
801 799 0
800 -801 -799 0
8 -799 0
-8 799 0
802 -803 0
804 802 0
803 -804 -802 0
28 -802 0
-28 802 0
805 -806 0
807 805 0
806 -807 -805 0
30 -805 0
-30 805 0
808 -809 0
810 808 0
809 -810 -808 0
31 -808 0
-31 808 0
811 -812 0
813 811 0
812 -813 -811 0
32 -811 0
-32 811 0
814 -815 0
816 814 0
815 -816 -814 0
33 -814 0
-33 814 0
817 -818 0
819 817 0
818 -819 -817 0
34 -817 0
-34 817 0
820 -821 0
822 820 0
821 -822 -820 0
35 -820 0
-35 820 0
823 -824 0
825 823 0
824 -825 -823 0
36 -823 0
-36 823 0
826 -827 0
828 826 0
827 -828 -826 0
37 -826 0
-37 826 0
829 -830 0
831 829 0
830 -831 -829 0
38 -829 0
-38 829 0
832 -833 0
834 832 0
833 -834 -832 0
39 -832 0
-39 832 0
835 -836 0
837 835 0
836 -837 -835 0
73 -835 0
-73 835 0
838 -839 0
840 838 0
839 -840 -838 0
75 -838 0
-75 838 0
841 -842 0
843 841 0
842 -843 -841 0
76 -841 0
-76 841 0
844 -845 0
846 844 0
845 -846 -844 0
77 -844 0
-77 844 0
847 -848 0
849 847 0
848 -849 -847 0
78 -847 0
-78 847 0
850 -851 0
852 850 0
851 -852 -850 0
79 -850 0
-79 850 0
853 -854 0
855 853 0
854 -855 -853 0
80 -853 0
-80 853 0
856 -857 0
858 856 0
857 -858 -856 0
81 -856 0
-81 856 0
859 -860 0
861 859 0
860 -861 -859 0
82 -859 0
-82 859 0
862 -863 0
864 862 0
863 -864 -862 0
83 -862 0
-83 862 0
865 -866 0
867 865 0
866 -867 -865 0
115 -865 0
-115 865 0
868 -869 0
870 868 0
869 -870 -868 0
117 -868 0
-117 868 0
871 -872 0
873 871 0
872 -873 -871 0
118 -871 0
-118 871 0
874 -875 0
876 874 0
875 -876 -874 0
119 -874 0
-119 874 0
877 -878 0
879 877 0
878 -879 -877 0
130 -877 0
-130 877 0
880 -881 0
882 880 0
881 -882 -880 0
132 -880 0
-132 880 0
883 -884 0
885 883 0
884 -885 -883 0
133 -883 0
-133 883 0
886 -887 0
888 886 0
887 -888 -886 0
134 -886 0
-134 886 0
889 -890 0
891 889 0
890 -891 -889 0
135 -889 0
-135 889 0
892 -893 0
894 892 0
893 -894 -892 0
136 -892 0
-136 892 0
895 -896 0
897 895 0
896 -897 -895 0
137 -895 0
-137 895 0
898 -899 0
900 898 0
899 -900 -898 0
138 -898 0
-138 898 0
901 -902 0
903 901 0
902 -903 -901 0
139 -901 0
-139 901 0
904 -905 0
906 904 0
905 -906 -904 0
140 -904 0
-140 904 0
907 -908 0
909 907 0
908 -909 -907 0
172 -907 0
-172 907 0
910 -911 0
912 910 0
911 -912 -910 0
174 -910 0
-174 910 0
913 -914 0
915 913 0
914 -915 -913 0
175 -913 0
-175 913 0
916 -917 0
918 916 0
917 -918 -916 0
176 -916 0
-176 916 0
919 -920 0
921 919 0
920 -921 -919 0
177 -919 0
-177 919 0
922 -923 0
924 922 0
923 -924 -922 0
178 -922 0
-178 922 0
925 -926 0
927 925 0
926 -927 -925 0
179 -925 0
-179 925 0
928 -929 0
930 928 0
929 -930 -928 0
180 -928 0
-180 928 0
931 -932 0
933 931 0
932 -933 -931 0
181 -931 0
-181 931 0
934 -935 0
936 934 0
935 -936 -934 0
209 -934 0
-209 934 0
937 -938 0
939 937 0
938 -939 -937 0
211 -937 0
-211 937 0
940 -941 0
942 940 0
941 -942 -940 0
212 -940 0
-212 940 0
943 -944 0
945 943 0
944 -945 -943 0
213 -943 0
-213 943 0
946 -947 0
948 946 0
947 -948 -946 0
214 -946 0
-214 946 0
949 -950 0
951 949 0
950 -951 -949 0
215 -949 0
-215 949 0
952 -953 0
954 952 0
953 -954 -952 0
216 -952 0
-216 952 0
955 -956 0
957 955 0
956 -957 -955 0
217 -955 0
-217 955 0
958 -959 0
960 958 0
959 -960 -958 0
218 -958 0
-218 958 0
961 -962 0
963 961 0
962 -963 -961 0
219 -961 0
-219 961 0
964 -965 0
966 964 0
965 -966 -964 0
220 -964 0
-220 964 0
967 -968 0
969 967 0
968 -969 -967 0
254 -967 0
-254 967 0
970 -971 0
972 970 0
971 -972 -970 0
256 -970 0
-256 970 0
973 -974 0
975 973 0
974 -975 -973 0
257 -973 0
-257 973 0
976 -977 0
978 976 0
977 -978 -976 0
258 -976 0
-258 976 0
979 -980 0
981 979 0
980 -981 -979 0
259 -979 0
-259 979 0
982 -983 0
984 982 0
983 -984 -982 0
260 -982 0
-260 982 0
985 -986 0
987 985 0
986 -987 -985 0
261 -985 0
-261 985 0
988 -989 0
990 988 0
989 -990 -988 0
262 -988 0
-262 988 0
991 -992 0
993 991 0
992 -993 -991 0
263 -991 0
-263 991 0
994 -995 0
996 994 0
995 -996 -994 0
293 -994 0
-293 994 0
997 -998 0
999 997 0
998 -999 -997 0
295 -997 0
-295 997 0
1000 -1001 0
1002 1000 0
1001 -1002 -1000 0
296 -1000 0
-296 1000 0
1003 -1004 0
1005 1003 0
1004 -1005 -1003 0
297 -1003 0
-297 1003 0
1006 -1007 0
1008 1006 0
1007 -1008 -1006 0
298 -1006 0
-298 1006 0
1009 -1010 0
1011 1009 0
1010 -1011 -1009 0
299 -1009 0
-299 1009 0
1012 -1013 0
1014 1012 0
1013 -1014 -1012 0
300 -1012 0
-300 1012 0
1015 -1016 0
1017 1015 0
1016 -1017 -1015 0
301 -1015 0
-301 1015 0
1018 -1019 0
1020 1018 0
1019 -1020 -1018 0
302 -1018 0
-302 1018 0
1021 -1022 0
1023 1021 0
1022 -1023 -1021 0
303 -1021 0
-303 1021 0
1024 -1025 0
1026 1024 0
1025 -1026 -1024 0
304 -1024 0
-304 1024 0
1027 -1028 0
1029 1027 0
1028 -1029 -1027 0
338 -1027 0
-338 1027 0
1030 -1031 0
1032 1030 0
1031 -1032 -1030 0
340 -1030 0
-340 1030 0
1033 -1034 0
1035 1033 0
1034 -1035 -1033 0
341 -1033 0
-341 1033 0
1036 -1037 0
1038 1036 0
1037 -1038 -1036 0
342 -1036 0
-342 1036 0
1039 -1040 0
1041 1039 0
1040 -1041 -1039 0
343 -1039 0
-343 1039 0
1042 -1043 0
1044 1042 0
1043 -1044 -1042 0
344 -1042 0
-344 1042 0
1045 -1046 0
1047 1045 0
1046 -1047 -1045 0
345 -1045 0
-345 1045 0
1048 -1049 0
1050 1048 0
1049 -1050 -1048 0
346 -1048 0
-346 1048 0
1051 -1052 0
1053 1051 0
1052 -1053 -1051 0
347 -1051 0
-347 1051 0
1054 -1055 0
1056 1054 0
1055 -1056 -1054 0
348 -1054 0
-348 1054 0
1057 -1058 0
1059 1057 0
1058 -1059 -1057 0
378 -1057 0
-378 1057 0
1060 -1061 0
1062 1060 0
1061 -1062 -1060 0
380 -1060 0
-380 1060 0
1063 -1064 0
1065 1063 0
1064 -1065 -1063 0
381 -1063 0
-381 1063 0
1066 -1067 0
1068 1066 0
1067 -1068 -1066 0
382 -1066 0
-382 1066 0
1069 -1070 0
1071 1069 0
1070 -1071 -1069 0
383 -1069 0
-383 1069 0
1072 -1073 0
1074 1072 0
1073 -1074 -1072 0
384 -1072 0
-384 1072 0
1075 -1076 0
1077 1075 0
1076 -1077 -1075 0
385 -1075 0
-385 1075 0
1078 -1079 0
1080 1078 0
1079 -1080 -1078 0
386 -1078 0
-386 1078 0
1081 -1082 0
1083 1081 0
1082 -1083 -1081 0
387 -1081 0
-387 1081 0
1084 -1085 0
1086 1084 0
1085 -1086 -1084 0
415 -1084 0
-415 1084 0
1087 -1088 0
1089 1087 0
1088 -1089 -1087 0
417 -1087 0
-417 1087 0
1090 -1091 0
1092 1090 0
1091 -1092 -1090 0
418 -1090 0
-418 1090 0
1093 -1094 0
1095 1093 0
1094 -1095 -1093 0
419 -1093 0
-419 1093 0
1096 -1097 0
1098 1096 0
1097 -1098 -1096 0
420 -1096 0
-420 1096 0
1099 -1100 0
1101 1099 0
1100 -1101 -1099 0
421 -1099 0
-421 1099 0
1102 -1103 0
1104 1102 0
1103 -1104 -1102 0
422 -1102 0
-422 1102 0
1105 -1106 0
1107 1105 0
1106 -1107 -1105 0
423 -1105 0
-423 1105 0
1108 -1109 0
1110 1108 0
1109 -1110 -1108 0
424 -1108 0
-424 1108 0
1111 -1112 0
1113 1111 0
1112 -1113 -1111 0
425 -1111 0
-425 1111 0
1114 -1115 0
1116 1114 0
1115 -1116 -1114 0
426 -1114 0
-426 1114 0
1117 -1118 0
1119 1117 0
1118 -1119 -1117 0
460 -1117 0
-460 1117 0
1120 -1121 0
1122 1120 0
1121 -1122 -1120 0
462 -1120 0
-462 1120 0
1123 -1124 0
1125 1123 0
1124 -1125 -1123 0
463 -1123 0
-463 1123 0
1126 -1127 0
1128 1126 0
1127 -1128 -1126 0
464 -1126 0
-464 1126 0
1129 -1130 0
1131 1129 0
1130 -1131 -1129 0
465 -1129 0
-465 1129 0
1132 -1133 0
1134 1132 0
1133 -1134 -1132 0
466 -1132 0
-466 1132 0
1135 -1136 0
1137 1135 0
1136 -1137 -1135 0
467 -1135 0
-467 1135 0
1138 -1139 0
1140 1138 0
1139 -1140 -1138 0
468 -1138 0
-468 1138 0
1141 -1142 0
1143 1141 0
1142 -1143 -1141 0
469 -1141 0
-469 1141 0
1144 -1145 0
1146 1144 0
1145 -1146 -1144 0
470 -1144 0
-470 1144 0
1147 -1148 0
1149 1147 0
1148 -1149 -1147 0
471 -1147 0
-471 1147 0
1150 -1151 0
1152 1150 0
1151 -1152 -1150 0
505 -1150 0
-505 1150 0
1153 -1154 0
1155 1153 0
1154 -1155 -1153 0
507 -1153 0
-507 1153 0
1156 -1157 0
1158 1156 0
1157 -1158 -1156 0
508 -1156 0
-508 1156 0
1159 -1160 0
1161 1159 0
1160 -1161 -1159 0
509 -1159 0
-509 1159 0
1162 -1163 0
1164 1162 0
1163 -1164 -1162 0
510 -1162 0
-510 1162 0
1165 -1166 0
1167 1165 0
1166 -1167 -1165 0
511 -1165 0
-511 1165 0
1168 -1169 0
1170 1168 0
1169 -1170 -1168 0
512 -1168 0
-512 1168 0
1171 -1172 0
1173 1171 0
1172 -1173 -1171 0
513 -1171 0
-513 1171 0
1174 -1175 0
1176 1174 0
1175 -1176 -1174 0
539 -1174 0
-539 1174 0
1177 -1178 0
1179 1177 0
1178 -1179 -1177 0
541 -1177 0
-541 1177 0
1180 -1181 0
1182 1180 0
1181 -1182 -1180 0
542 -1180 0
-542 1180 0
1183 -1184 0
1185 1183 0
1184 -1185 -1183 0
543 -1183 0
-543 1183 0
1186 -1187 0
1188 1186 0
1187 -1188 -1186 0
544 -1186 0
-544 1186 0
1189 -1190 0
1191 1189 0
1190 -1191 -1189 0
545 -1189 0
-545 1189 0
1192 -1193 0
1194 1192 0
1193 -1194 -1192 0
563 -1192 0
-563 1192 0
1195 -1196 0
1197 1195 0
1196 -1197 -1195 0
565 -1195 0
-565 1195 0
1198 -1199 0
1200 1198 0
1199 -1200 -1198 0
566 -1198 0
-566 1198 0
1201 -1202 0
1203 1201 0
1202 -1203 -1201 0
567 -1201 0
-567 1201 0
1204 -1205 0
1206 1204 0
1205 -1206 -1204 0
568 -1204 0
-568 1204 0
1207 -1208 0
1209 1207 0
1208 -1209 -1207 0
569 -1207 0
-569 1207 0
1210 -1211 0
1212 1210 0
1211 -1212 -1210 0
570 -1210 0
-570 1210 0
1213 -1214 0
1215 1213 0
1214 -1215 -1213 0
571 -1213 0
-571 1213 0
1216 -1217 0
1218 1216 0
1217 -1218 -1216 0
572 -1216 0
-572 1216 0
1219 -1220 0
1221 1219 0
1220 -1221 -1219 0
573 -1219 0
-573 1219 0
1222 -1223 0
1224 1222 0
1223 -1224 -1222 0
574 -1222 0
-574 1222 0
1225 -1226 0
1227 1225 0
1226 -1227 -1225 0
608 -1225 0
-608 1225 0
1228 -1229 0
1230 1228 0
1229 -1230 -1228 0
610 -1228 0
-610 1228 0
1231 -1232 0
1233 1231 0
1232 -1233 -1231 0
611 -1231 0
-611 1231 0
1234 -1235 0
1236 1234 0
1235 -1236 -1234 0
612 -1234 0
-612 1234 0
1237 -1238 0
1239 1237 0
1238 -1239 -1237 0
613 -1237 0
-613 1237 0
1240 -1241 0
1242 1240 0
1241 -1242 -1240 0
614 -1240 0
-614 1240 0
1243 -1244 0
1245 1243 0
1244 -1245 -1243 0
615 -1243 0
-615 1243 0
1246 -1247 0
1248 1246 0
1247 -1248 -1246 0
616 -1246 0
-616 1246 0
1249 -1250 0
1251 1249 0
1250 -1251 -1249 0
617 -1249 0
-617 1249 0
1252 -1253 0
1254 1252 0
1253 -1254 -1252 0
618 -1252 0
-618 1252 0
1255 -1256 0
1257 1255 0
1256 -1257 -1255 0
648 -1255 0
-648 1255 0
1258 -1259 0
1260 1258 0
1259 -1260 -1258 0
650 -1258 0
-650 1258 0
1261 -1262 0
1263 1261 0
1262 -1263 -1261 0
651 -1261 0
-651 1261 0
1264 -1265 0
1266 1264 0
1265 -1266 -1264 0
652 -1264 0
-652 1264 0
1267 -1268 0
1269 1267 0
1268 -1269 -1267 0
653 -1267 0
-653 1267 0
1270 -1271 0
1272 1270 0
1271 -1272 -1270 0
654 -1270 0
-654 1270 0
1273 -1274 0
1275 1273 0
1274 -1275 -1273 0
655 -1273 0
-655 1273 0
1276 -1277 0
1278 1276 0
1277 -1278 -1276 0
656 -1276 0
-656 1276 0
1279 -1280 0
1281 1279 0
1280 -1281 -1279 0
657 -1279 0
-657 1279 0
1282 -1283 0
1284 1282 0
1283 -1284 -1282 0
658 -1282 0
-658 1282 0
1285 -1286 0
1287 1285 0
1286 -1287 -1285 0
659 -1285 0
-659 1285 0
1288 -1289 0
1290 1288 0
1289 -1290 -1288 0
660 -1288 0
-660 1288 0
1291 -1292 0
1293 1291 0
1292 -1293 -1291 0
698 -1291 0
-698 1291 0
1294 -1295 0
1296 1294 0
1295 -1296 -1294 0
700 -1294 0
-700 1294 0
1297 -1298 0
1299 1297 0
1298 -1299 -1297 0
701 -1297 0
-701 1297 0
1300 -1301 0
1302 1300 0
1301 -1302 -1300 0
702 -1300 0
-702 1300 0
1303 -1304 0
1305 1303 0
1304 -1305 -1303 0
703 -1303 0
-703 1303 0
1306 -1307 0
1308 1306 0
1307 -1308 -1306 0
704 -1306 0
-704 1306 0
1309 -1310 0
1311 1309 0
1310 -1311 -1309 0
705 -1309 0
-705 1309 0
1312 -1313 0
1314 1312 0
1313 -1314 -1312 0
706 -1312 0
-706 1312 0
1315 -1316 0
1317 1315 0
1316 -1317 -1315 0
707 -1315 0
-707 1315 0
1318 -1319 0
1320 1318 0
1319 -1320 -1318 0
708 -1318 0
-708 1318 0
1321 -1322 0
1323 1321 0
1322 -1323 -1321 0
742 -1321 0
-742 1321 0
1324 -1325 0
1326 1324 0
1325 -1326 -1324 0
744 -1324 0
-744 1324 0
1327 -1328 0
1329 1327 0
1328 -1329 -1327 0
745 -1327 0
-745 1327 0
1330 -1331 0
1332 1330 0
1331 -1332 -1330 0
746 -1330 0
-746 1330 0
1333 -1334 0
1335 1333 0
1334 -1335 -1333 0
747 -1333 0
-747 1333 0
1336 -1337 0
1338 1336 0
1337 -1338 -1336 0
748 -1336 0
-748 1336 0
1339 -1340 0
1341 1339 0
1340 -1341 -1339 0
749 -1339 0
-749 1339 0
1342 -1343 0
1344 1342 0
1343 -1344 -1342 0
750 -1342 0
-750 1342 0
1345 -1346 0
1347 1345 0
1346 -1347 -1345 0
751 -1345 0
-751 1345 0
-783 0
786 0
789 0
-792 0
-795 0
-798 0
-801 0
-804 0
-807 0
-810 0
-813 0
-816 0
819 0
-822 0
825 0
-828 0
-831 0
-834 0
-837 0
840 0
843 0
846 0
849 0
852 0
855 0
858 0
861 0
-864 0
-867 0
-870 0
873 0
-876 0
-879 0
-882 0
-885 0
-888 0
891 0
894 0
897 0
900 0
-903 0
-906 0
-909 0
-912 0
915 0
-918 0
921 0
924 0
-927 0
-930 0
933 0
-936 0
-939 0
942 0
945 0
-948 0
951 0
-954 0
-957 0
-960 0
-963 0
966 0
969 0
-972 0
-975 0
978 0
-981 0
984 0
-987 0
990 0
993 0
-996 0
-999 0
1002 0
1005 0
-1008 0
-1011 0
1014 0
1017 0
1020 0
1023 0
1026 0
-1029 0
-1032 0
-1035 0
1038 0
1041 0
1044 0
-1047 0
1050 0
-1053 0
-1056 0
-1059 0
1062 0
-1065 0
1068 0
1071 0
1074 0
1077 0
-1080 0
1083 0
-1086 0
-1089 0
-1092 0
-1095 0
1098 0
-1101 0
1104 0
1107 0
1110 0
-1113 0
-1116 0
-1119 0
-1122 0
1125 0
-1128 0
-1131 0
-1134 0
1137 0
1140 0
1143 0
1146 0
-1149 0
1152 0
1155 0
-1158 0
1161 0
1164 0
1167 0
-1170 0
-1173 0
1176 0
-1179 0
1182 0
1185 0
-1188 0
1191 0
-1194 0
-1197 0
-1200 0
1203 0
-1206 0
1209 0
1212 0
1215 0
-1218 0
-1221 0
1224 0
-1227 0
-1230 0
1233 0
-1236 0
1239 0
-1242 0
-1245 0
1248 0
1251 0
1254 0
1257 0
-1260 0
1263 0
-1266 0
1269 0
1272 0
-1275 0
-1278 0
-1281 0
-1284 0
1287 0
1290 0
1293 0
1296 0
1299 0
1302 0
-1305 0
-1308 0
1311 0
-1314 0
-1317 0
1320 0
1323 0
-1326 0
1329 0
1332 0
-1335 0
1338 0
-1341 0
1344 0
1347 0
11 0
41 0
85 0
121 0
142 0
183 0
222 0
265 0
306 0
350 0
-389 0
-428 0
-473 0
-515 0
-547 0
-576 0
-620 0
-662 0
-710 0
-753 0
893 -932 0
932 -893 0
896 -920 0
920 -896 0
899 -923 0
923 -899 0
902 -926 0
926 -902 0
905 -929 0
929 -905 0
